language Essence 1.3

letting blksize_delta be
        function(1 --> 8, 2 --> 9, 3 --> 9, 4 --> 8, 5 --> 8, 6 --> 8, 7 --> 8, 8 --> 8, 9 --> 8, 10 --> 8, 11 --> 8,
                 12 --> 8, 13 --> 8, 14 --> 8, 15 --> 10, 16 --> 8, 17 --> 9, 18 --> 9, 19 --> 8, 20 --> 9, 21 --> 8,
                 22 --> 8, 23 --> 8, 24 --> 8, 25 --> 8, 26 --> 8, 27 --> 8, 28 --> 8)
letting maxcars be
        function(1 --> 8, 2 --> 8, 3 --> 8, 4 --> 8, 5 --> 8, 6 --> 10, 7 --> 8, 8 --> 8, 9 --> 8, 10 --> 8, 11 --> 8,
                 12 --> 8, 13 --> 8, 14 --> 8, 15 --> 8, 16 --> 8, 17 --> 8, 18 --> 8, 19 --> 8, 20 --> 8, 21 --> 8,
                 22 --> 8, 23 --> 8, 24 --> 8, 25 --> 8, 26 --> 8, 27 --> 8, 28 --> 8)
letting n_cars be 215
letting n_classes be 23
letting n_options be 28
letting quantity be
        function(1 --> 9, 2 --> 15, 3 --> 9, 4 --> 9, 5 --> 9, 6 --> 9, 7 --> 10, 8 --> 9, 9 --> 9, 10 --> 9, 11 --> 9,
                 12 --> 9, 13 --> 9, 14 --> 9, 15 --> 9, 16 --> 9, 17 --> 9, 18 --> 9, 19 --> 9, 20 --> 9, 21 --> 9,
                 22 --> 9, 23 --> 10)
letting usage be
        relation((1, 9), (1, 16), (2, 20), (2, 21), (2, 22), (2, 24), (3, 6), (3, 8), (3, 27), (4, 9), (4, 13), (5, 10),
                 (5, 16), (5, 17), (5, 21), (6, 7), (6, 10), (6, 15), (7, 4), (7, 19), (8, 5), (9, 2), (9, 5), (9, 6),
                 (9, 17), (9, 28), (10, 2), (10, 16), (10, 19), (10, 27), (11, 13), (11, 24), (12, 1), (12, 28),
                 (13, 3), (13, 8), (13, 13), (13, 19), (14, 1), (14, 5), (14, 25), (15, 14), (15, 19), (16, 8),
                 (16, 13), (16, 15), (16, 28), (17, 5), (17, 7), (17, 13), (18, 6), (18, 13), (18, 15), (18, 17),
                 (18, 19), (18, 22), (18, 27), (19, 13), (19, 25), (20, 4), (20, 19), (20, 22), (20, 28), (21, 8),
                 (21, 21), (22, 22), (22, 24), (22, 27), (23, 8), (23, 11), (23, 12), (23, 18), (23, 23), (23, 26),
                 (23, 27))
$ Visualisation for usage
$  1  9
$  1 16
$  2 20
$  2 21
$  2 22
$  2 24
$  3  6
$  3  8
$  3 27
$  4  9
$  4 13
$  5 10
$  5 16
$  5 17
$  5 21
$  6  7
$  6 10
$  6 15
$  7  4
$  7 19
$  8  5
$  9  2
$  9  5
$  9  6
$  9 17
$  9 28
$ 10  2
$ 10 16
$ 10 19
$ 10 27
$ 11 13
$ 11 24
$ 12  1
$ 12 28
$ 13  3
$ 13  8
$ 13 13
$ 13 19
$ 14  1
$ 14  5
$ 14 25
$ 15 14
$ 15 19
$ 16  8
$ 16 13
$ 16 15
$ 16 28
$ 17  5
$ 17  7
$ 17 13
$ 18  6
$ 18 13
$ 18 15
$ 18 17
$ 18 19
$ 18 22
$ 18 27
$ 19 13
$ 19 25
$ 20  4
$ 20 19
$ 20 22
$ 20 28
$ 21  8
$ 21 21
$ 22 22
$ 22 24
$ 22 27
$ 23  8
$ 23 11
$ 23 12
$ 23 18
$ 23 23
$ 23 26
$ 23 27

